
Value of objective function: 1000000000000000019884624838656.00000000

Actual values of the variables:
maximize                    1e+30
bookcase                       39
desk                            0
chair                          48
bedframe                       30
